Route #1: 30 85 11 79
Route #2: 75 93
Route #3: 8 17
Route #4: 5 12 58
Route #5: 81 51 83
Route #6: 28 42 78 65 25
Route #7: 87 37 6 49 14
Route #8: 100 61 23
Route #9: 1 70 54
Route #10: 89 98 99 62 71
Route #11: 69 16 55 76
Route #12: 82 60 59
Route #13: 57 72 36 29 43 45 2 7
Route #14: 63 77 3
Route #15: 15 22 41 20
Route #16: 24 95 73 53 33 32
Route #17: 31 46 35
Route #18: 4 13 74
Route #19: 38 47 26 48 96 64 34
Route #20: 52 91 50
Route #21: 44 67 88 40
Route #22: 66 84 90 68
Route #23: 86 9 92
Route #24: 27 97 19
Route #25: 21 56 94 80
Route #26: 39 10 18
Cost 27591.0000
Time 16.0006